TCS_Benchmarks/redos_fix/regexlib1_output_distinct_1712_1711_192_0.txt
int|void|float|char|double|string
([0-9a-z])*